units lj
atom_style atomic
boundary p p p
timestep 0.001

read_data decomp.atoms

mass 1 1.0
mass 2 1.0

pair_style lj/cut 3.0
pair_coeff 1 1 1.0 1.0 3.0
pair_coeff 1 2 1.0 1.0 1.0
pair_coeff 2 2 1.0 1.0 3.0

neighbor 0.3 bin
neigh_modify every 20 delay 0 check no

fix 1 all nvt temp 0.8 0.8 0.1

dump id all atom 100 decomp.lammpstrj

thermo 500
run 20000


